19 34 17 54 2 50 130 71 39 41 1 127 107 104 43 68 63 70 97 7 26 88 86 69 64 124 129 61 109 76 11 5 45 16 128 105 62 28 115 112 117 83 3 114 30 59 90 125 85 66 78 121 126 108 8 18 80 46 20 118 35 4 93 21 33 23 40 47 22 37 44 42 51 55 122 96 13 67 14 10 102 6 60 120 53 58 49 106 38 79 29 94 77 103 81 87 12 92 72 91 99 73 74 75 52 9 65 56 57 82 101 123 111 119 84 36 113 32 48 25 98 110 89 15 24 95 116 100 31 27 